CMD:
./solvers/bin/cadical --plain --no-reduce -t 1600 ./data/cnfs//qspiflash_qflexpress_divfive-p121/qspiflash_qflexpress_divfive-p121.17.cnf

c --- [ banner ] -------------------------------------------------------------
c 
c CaDiCaL SAT Solver
c Copyright (c) 2016-2024
c A. Biere, M. Fleury, N. Froleyks, K. Fazekas, F. Pollitt, T. Faller
c JKU Linz, University of Freiburg, TU Wien
c 
c Version 2.1.3 5296d3d2a9bf48c154ab2acb5e44625776d821bf
c g++ (Gentoo 12.3.1_p20230526 p2) 12.3.1 20230526 -Wall -Wextra -O3 -DNDEBUG
c Sat Aug 9 07:26:21 PDT 2025 Linux cedar2.int.cedar.computecanada.ca 5.14.0-362.24.2.el9_3.x86_64 x86_64
c 
c --- [ limit ] --------------------------------------------------------------
c 
c setting time limit to 1600 seconds real time (due to '-t 1600')
c 
c --- [ parsing input ] ------------------------------------------------------
c 
c reading DIMACS file from './data/cnfs//qspiflash_qflexpress_divfive-p121/qspiflash_qflexpress_divfive-p121.17.cnf'
c opening file to read './data/cnfs//qspiflash_qflexpress_divfive-p121/qspiflash_qflexpress_divfive-p121.17.cnf'
c found 'p cnf 47741 138218' header
c parsed 138218 clauses in 0.02 seconds process time
c 
c --- [ options ] ------------------------------------------------------------
c 
c   --compact=false                (different from default 'true')
c   --decompose=false              (different from default 'true')
c   --deduplicate=false            (different from default 'true')
c   --elim=false                   (different from default 'true')
c   --probe=false                  (different from default 'true')
c   --reduce=false                 (different from default 'true')
c   --subsume=false                (different from default 'true')
c   --ternary=false                (different from default 'true')
c   --transred=false               (different from default 'true')
c   --vivify=false                 (different from default 'true')
c 
c --- [ solving ] ------------------------------------------------------------
c 
c time measured in process time since initialization
c 
c  seconds  reductions  redundant  irredundant
c         MB    restarts       trail       variables
c          level   conflicts       glue         remaining
c 
c *  0.02 24  0 0   0    0    0  0% 0 126035 41083 86%
c {  0.03 25  0 0   0    0    0  0% 0 126035 41083 86%
c i  0.03 25 15 0   0   13   11 20% 4 126035 41072 86%
c i  0.04 25 18 0   0   89   79 21% 3 126035 40738 85%
c i  0.04 25 19 0   1  111   93 21% 5 126035 40704 85%
c i  0.04 25 20 0  10  175  144 22% 5 126035 40431 85%
c i  0.04 25 20 0  10  183  147 22% 5 126035 40292 84%
c i  0.04 25 20 0  10  186  149 22% 5 126035 40269 84%
c i  0.04 25 19 0  10  222  181 22% 4 126035 40263 84%
c i  0.04 25 19 0  10  224  182 22% 4 126035 40251 84%
c i  0.05 25 18 0  10  290  241 22% 4 126035 40181 84%
c i  0.05 25 17 0  10  376  318 23% 4 126035 40142 84%
c i  0.05 25 17 0  10  377  318 23% 4 126035 40135 84%
c i  0.06 25 17 0  22  440  373 23% 4 126035 40125 84%
c i  0.06 25 17 0  25  451  382 23% 4 126035 40085 84%
c i  0.06 25 16 0  25  463  388 23% 4 126035 40081 84%
c i  0.07 25 16 0  41  684  567 24% 4 126035 40079 84%
c i  0.07 25 16 0  41  699  574 24% 4 126035 40076 84%
c i  0.08 25 15 0  41  828  684 25% 4 126035 39473 83%
c i  0.08 25 15 0  41  829  684 24% 4 126035 39431 83%
c 
c  seconds  reductions  redundant  irredundant
c         MB    restarts       trail       variables
c          level   conflicts       glue         remaining
c 
c i  0.08 25 15 0  41  860  711 24% 4 126035 38656 81%
c }  0.08 25 14 0  41  912  737 25% 4 126035 37978 80%
c 0  0.08 25 14 0  41  912  737 25% 4 126035 37978 80%
c 
c --- [ result ] -------------------------------------------------------------
c 
s UNSATISFIABLE
c 
c --- [ run-time profiling ] -------------------------------------------------
c 
c process time taken by individual solving procedures
c (percentage relative to process time for solving)
c 
c         0.06   99.86% search
c         0.05   84.02% unstable
c         0.02   40.13% parse
c         0.01   15.80% lucky
c         0.00    0.00% simplify
c   =================================
c         0.06   71.02% solve
c 
c last line shows process time for solving
c (percentage relative to total process time)
c 
c --- [ statistics ] ---------------------------------------------------------
c 
c chronological:               333        36.51 %  of conflicts
c conflicts:                   912     16156.75    per second
c decisions:                  1909     33819.33    per second
c fixed:                      9762        20.45 %  of all variables
c learned:                     852        93.42 %  per conflict
c learned_lits:              10322       100.00 %  learned literals
c minimized:                     0         0.00 %  learned literals
c shrunken:                   2053        19.89 %  learned literals
c minishrunken:                878         8.51 %  learned literals
c otfs:                         16         1.75 %  of conflict
c propagations:            1134590        20.10 M  per second
c restarts:                     41        22.24    interval
c subsumed:                     94         0.07 %  of all clauses
c strengthened:                 16         0.01 %  of all clauses
c 
c seconds are measured in process time for solving
c 
c --- [ resources ] ----------------------------------------------------------
c 
c total process time since initialization:         0.08    seconds
c total real time since initialization:            0.08    seconds
c maximum resident set size of process:           32.27    MB
c 
c --- [ shutting down ] ------------------------------------------------------
c 
c exit 20
